c t wmc
c file mc2022_track2_047.cnf
p cnf 74 384
-18 33 48 -30 -2 0
-3 56 32 -59 -7 0
-73 52 -69 -3 56 0
59 7 -12 18 33 0
14 68 44 -41 31 0
8 17 -11 60 -16 0
-18 -33 48 -30 2 0
30 2 -22 15 -28 0
41 -31 -25 9 67 0
-46 24 -72 -53 61 0
-1 66 19 -8 -17 0
-9 67 43 -21 -54 0
3 -56 -32 59 -7 0
41 -31 -25 -9 -67 0
-35 55 13 1 66 0
21 -54 45 -70 -29 0
-70 -29 -71 50 39 0
-46 -24 72 53 -61 0
-58 6 10 36 23 0
36 23 27 -35 -55 0
70 29 -71 -50 -39 0
15 -28 37 40 5 0
-15 -28 37 -40 5 0
-58 6 -10 36 -23 0
-15 -28 37 40 -5 0
-26 -20 -64 4 34 0
53 -61 57 47 74 0
30 -2 22 -15 28 0
-70 29 -71 -50 39 0
26 20 -64 4 34 0
8 -17 -11 60 16 0
-4 34 -62 38 65 0
-14 -68 44 41 -31 0
18 -33 48 -30 -2 0
3 -56 32 59 7 0
-38 65 -63 73 -52 0
-41 31 -25 -9 -67 0
-73 -52 69 3 -56 0
14 -68 44 41 31 0
15 -28 -37 40 -5 0
-18 -33 -48 30 2 0
38 65 63 73 -52 0
1 66 19 -8 17 0
-9 -67 43 -21 54 0
-8 -17 -11 -60 16 0
-18 33 -48 -30 2 0
53 -61 -57 -47 74 0
-14 -68 44 -41 31 0
38 -65 -63 -73 52 0
-9 67 43 21 54 0
-9 -67 -43 -21 -54 0
35 -55 -13 -1 66 0
30 -2 -22 -15 -28 0
38 -65 63 -73 -52 0
4 -34 -62 -38 -65 0
3 -56 32 -59 -7 0
-47 74 42 -26 -20 0
-21 54 -45 -70 29 0
38 -65 -63 73 -52 0
-1 -66 -19 8 17 0
60 16 49 14 -68 0
53 61 -57 47 74 0
-46 -24 -72 -53 -61 0
-30 2 22 -15 28 0
60 16 -49 -14 -68 0
59 7 12 -18 33 0
-3 -56 -32 -59 -7 0
21 -54 45 70 29 0
-30 2 -22 15 28 0
-21 -54 45 70 -29 0
15 -28 37 -40 -5 0
21 -54 -45 70 -29 0
36 -23 -27 35 55 0
4 -34 62 -38 65 0
-60 16 49 14 68 0
-38 -65 63 73 -52 0
38 65 63 -73 52 0
-58 -6 10 36 -23 0
30 -2 22 15 -28 0
18 -33 -48 -30 2 0
70 -29 -71 50 -39 0
-59 -7 12 18 -33 0
14 -68 -44 41 -31 0
-60 16 -49 -14 68 0
58 -6 -10 -36 23 0
8 -17 11 60 -16 0
-15 28 37 40 5 0
-21 -54 -45 -70 -29 0
18 33 48 -30 2 0
18 33 -48 -30 -2 0
73 -52 69 -3 -56 0
9 67 43 21 -54 0
-35 55 -13 -1 66 0
-18 -33 -48 -30 -2 0
-36 23 27 35 -55 0
41 -31 25 -9 67 0
-14 68 44 41 31 0
-40 -5 51 -58 -6 0
-41 -31 25 9 67 0
9 67 43 -21 54 0
60 -16 -49 14 -68 0
41 31 -25 9 -67 0
47 -74 -42 26 -20 0
-15 -28 -37 -40 -5 0
70 29 -71 50 39 0
-40 5 51 -58 6 0
-59 7 -12 18 -33 0
47 74 42 -26 20 0
-8 -17 11 60 16 0
-26 -20 64 4 -34 0
-53 61 -57 -47 74 0
-14 -68 -44 41 31 0
15 28 37 40 -5 0
-36 23 -27 -35 -55 0
15 28 -37 40 5 0
-47 74 -42 -26 20 0
53 61 57 47 -74 0
35 55 -13 -1 -66 0
73 -52 69 3 56 0
40 -5 -51 58 6 0
-47 -74 42 -26 20 0
-36 -23 27 -35 -55 0
41 -31 25 9 -67 0
-40 -5 51 58 6 0
70 29 71 -50 39 0
-47 -74 -42 26 20 0
15 -28 -37 -40 5 0
-70 29 71 -50 -39 0
58 -6 10 -36 -23 0
58 6 -10 36 23 0
-35 -55 13 1 -66 0
-53 -61 -57 -47 -74 0
-47 -74 42 26 -20 0
58 6 10 -36 23 0
-60 -16 49 14 -68 0
36 -23 -27 -35 -55 0
40 5 -51 -58 6 0
70 29 71 50 -39 0
-35 -55 -13 -1 -66 0
58 -6 -10 36 -23 0
-4 34 -62 -38 -65 0
47 -74 -42 -26 20 0
-53 -61 57 -47 74 0
-21 -54 45 -70 29 0
36 -23 27 35 -55 0
36 -23 27 -35 55 0
-40 5 -51 -58 -6 0
-14 68 44 -41 -31 0
-4 -34 -62 38 -65 0
30 -2 -22 15 28 0
-21 54 -45 70 -29 0
-1 -66 19 8 -17 0
41 31 -25 -9 67 0
-73 52 -69 3 -56 0
-47 -74 -42 -26 -20 0
-47 74 42 26 20 0
-46 24 -72 53 -61 0
-59 -7 -12 -18 -33 0
58 -6 10 36 23 0
-14 68 -44 -41 31 0
-8 17 -11 -60 -16 0
9 -67 -43 21 -54 0
-41 -31 25 -9 -67 0
40 5 51 -58 -6 0
59 -7 -12 18 -33 0
3 -56 -32 -59 7 0
30 2 22 -15 -28 0
1 -66 19 8 17 0
3 56 -32 -59 -7 0
73 52 69 -3 56 0
-73 52 69 3 56 0
-30 -2 -22 15 -28 0
21 54 45 70 -29 0
70 -29 -71 -50 39 0
60 -16 49 14 68 0
59 -7 12 -18 -33 0
26 -20 64 4 34 0
-36 23 27 -35 55 0
14 -68 44 -41 -31 0
-58 -6 -10 -36 -23 0
4 34 62 -38 -65 0
59 7 -12 -18 -33 0
-70 29 71 50 39 0
4 -34 -62 38 65 0
46 -24 72 53 61 0
-40 5 51 58 -6 0
3 56 32 -59 7 0
46 24 72 53 -61 0
-26 -20 64 -4 34 0
-30 -2 22 -15 -28 0
-3 56 -32 -59 7 0
-35 55 13 -1 -66 0
-73 -52 -69 3 56 0
-1 -66 19 -8 17 0
-15 28 -37 40 -5 0
-73 -52 69 -3 56 0
15 28 37 -40 5 0
58 6 -10 -36 -23 0
46 24 -72 -53 -61 0
-60 -16 49 -14 68 0
35 -55 13 -1 -66 0
8 -17 -11 -60 -16 0
-70 -29 71 50 -39 0
70 -29 71 -50 -39 0
41 31 25 -9 -67 0
53 61 -57 -47 -74 0
-21 54 45 -70 -29 0
3 56 -32 59 7 0
-18 33 -48 30 -2 0
1 -66 -19 -8 17 0
73 52 69 3 -56 0
-26 20 64 -4 -34 0
-38 -65 -63 73 52 0
-38 -65 63 -73 52 0
73 52 -69 3 56 0
18 -33 -48 30 -2 0
30 2 22 15 28 0
-3 -56 -32 59 7 0
9 -67 43 21 54 0
-38 65 63 73 52 0
21 54 -45 70 29 0
36 23 -27 35 -55 0
-4 34 62 -38 65 0
3 56 32 59 -7 0
40 5 -51 58 -6 0
-59 -7 -12 18 33 0
1 66 -19 8 17 0
21 54 -45 -70 -29 0
-1 66 19 8 17 0
-46 -24 72 -53 61 0
-8 -17 -11 60 -16 0
1 -66 -19 8 -17 0
8 -17 11 -60 16 0
35 55 13 -1 66 0
-26 20 -64 -4 34 0
47 -74 42 26 20 0
26 20 64 -4 34 0
60 16 49 -14 68 0
-3 56 32 59 7 0
26 20 -64 -4 -34 0
-26 -20 -64 -4 -34 0
-30 -2 -22 -15 28 0
8 17 11 60 16 0
-60 -16 -49 14 68 0
-3 56 -32 59 -7 0
40 -5 51 -58 6 0
-40 5 -51 58 6 0
-36 -23 27 35 55 0
73 -52 -69 3 -56 0
46 -24 72 -53 -61 0
-46 24 72 -53 -61 0
-70 -29 -71 -50 -39 0
-3 -56 32 -59 7 0
47 74 -42 -26 -20 0
-38 65 63 -73 -52 0
18 -33 48 30 2 0
60 16 -49 14 68 0
59 -7 12 18 33 0
-59 -7 12 -18 33 0
73 -52 -69 -3 56 0
9 -67 43 -21 -54 0
-53 -61 57 47 -74 0
-70 29 -71 50 -39 0
41 31 25 9 67 0
-30 2 -22 -15 -28 0
-35 -55 13 -1 66 0
-21 54 45 70 29 0
-8 17 11 -60 16 0
-35 55 -13 1 -66 0
-18 -33 48 30 -2 0
-26 20 64 4 34 0
40 -5 -51 -58 -6 0
-40 -5 -51 58 -6 0
-15 28 37 -40 -5 0
-4 -34 62 38 65 0
15 28 -37 -40 -5 0
-36 23 -27 35 55 0
8 17 -11 -60 16 0
9 67 -43 21 54 0
-41 31 25 -9 67 0
-9 -67 -43 21 54 0
47 74 -42 26 20 0
38 65 -63 73 52 0
30 2 -22 -15 28 0
4 34 62 38 65 0
-9 67 -43 21 -54 0
36 23 27 35 55 0
-1 66 -19 -8 17 0
-41 31 -25 9 67 0
-38 65 -63 -73 52 0
9 67 -43 -21 -54 0
-53 61 57 -47 -74 0
1 66 19 8 -17 0
59 7 12 18 -33 0
-3 -56 32 59 -7 0
8 17 11 -60 -16 0
-8 17 11 60 -16 0
-9 -67 43 21 -54 0
-14 -68 -44 -41 -31 0
9 -67 -43 -21 54 0
47 -74 42 -26 -20 0
14 -68 -44 -41 31 0
40 -5 51 58 -6 0
35 -55 13 1 66 0
36 23 -27 -35 55 0
-58 -6 -10 36 23 0
-46 -24 -72 53 61 0
-41 -31 -25 -9 67 0
-60 16 49 -14 -68 0
38 65 -63 -73 -52 0
21 -54 -45 -70 29 0
4 34 -62 -38 65 0
46 24 -72 53 61 0
21 54 45 -70 29 0
-21 -54 -45 70 29 0
46 -24 -72 -53 61 0
35 55 13 1 -66 0
-53 61 -57 47 -74 0
46 24 72 -53 61 0
-58 -6 10 -36 23 0
38 -65 63 73 52 0
-73 52 69 -3 -56 0
-58 6 -10 -36 23 0
53 -61 57 -47 -74 0
-30 2 22 15 -28 0
47 74 42 26 -20 0
70 -29 71 50 39 0
35 55 -13 1 66 0
-41 -31 -25 9 -67 0
-60 16 -49 14 -68 0
-38 -65 -63 -73 -52 0
18 33 48 30 -2 0
-14 68 -44 41 -31 0
4 -34 62 38 -65 0
-59 7 12 18 33 0
-4 -34 62 -38 -65 0
1 66 -19 -8 -17 0
14 68 44 41 -31 0
-53 61 57 47 74 0
-59 7 12 -18 -33 0
-36 -23 -27 -35 55 0
58 6 10 36 -23 0
-70 -29 71 -50 39 0
-1 66 -19 8 -17 0
-73 -52 -69 -3 -56 0
26 -20 64 -4 -34 0
4 34 -62 38 -65 0
-58 6 10 -36 -23 0
18 33 -48 30 2 0
53 61 57 -47 74 0
35 -55 -13 1 -66 0
1 -66 19 -8 -17 0
26 -20 -64 -4 34 0
14 68 -44 -41 -31 0
59 -7 -12 -18 33 0
-46 24 72 53 61 0
-53 -61 -57 47 74 0
-40 -5 -51 -58 6 0
-9 67 -43 -21 54 0
-1 -66 -19 -8 -17 0
-4 -34 -62 -38 65 0
46 -24 -72 53 -61 0
-15 28 -37 -40 5 0
-36 -23 -27 35 -55 0
53 -61 -57 47 -74 0
26 20 64 4 -34 0
26 -20 -64 4 -34 0
-8 -17 11 -60 -16 0
-26 20 -64 4 -34 0
60 -16 49 -14 -68 0
-15 -28 -37 40 5 0
73 52 -69 -3 -56 0
-47 74 -42 26 -20 0
60 -16 -49 -14 68 0
14 68 -44 41 31 0
-35 -55 -13 1 66 0
-18 33 48 30 2 0
-59 7 -12 -18 33 0
-30 -2 22 15 28 0
-4 34 62 38 -65 0
40 5 51 58 6 0
-8 17 -11 60 16 0
-41 31 25 9 -67 0
-60 -16 -49 -14 -68 0
c p weight 1 0.98227558 0
c p weight -1 0.01772442 0
c p weight 2 0.98303793 0
c p weight -2 0.01696207 0
c p weight 3 0.9860486 0
c p weight -3 0.0139514 0
c p weight 4 0.99630112 0
c p weight -4 0.00369888 0
c p weight 5 0.99507747 0
c p weight -5 0.00492253 0
c p weight 6 0.99573294 0
c p weight -6 0.00426706 0
c p weight 7 0.99912515 0
c p weight -7 0.00087485 0
c p weight 8 0.99954403 0
c p weight -8 0.00045597 0
c p weight 9 0.98725556 0
c p weight -9 0.01274444 0
c p weight 10 0.00556959 0
c p weight -10 0.99443041 0
c p weight 11 0.98851966 0
c p weight -11 0.01148034 0
c p weight 12 0.01604973 0
c p weight -12 0.98395027 0
c p weight 13 0.01534594 0
c p weight -13 0.98465406 0
c p weight 14 0.99573892 0
c p weight -14 0.00426108 0
c p weight 15 0.98911596 0
c p weight -15 0.01088404 0
c p weight 16 0.98815409 0
c p weight -16 0.01184591 0
c p weight 17 0.98664886 0
c p weight -17 0.01335114 0
c p weight 18 0.98832905 0
c p weight -18 0.01167095 0
c p weight 19 0.01069924 0
c p weight -19 0.98930076 0
c p weight 20 0.98050146 0
c p weight -20 0.01949854 0
c p weight 21 0.99005018 0
c p weight -21 0.00994982 0
c p weight 22 0.98342362 0
c p weight -22 0.01657638 0
c p weight 23 0.99342175 0
c p weight -23 0.00657825 0
c p weight 24 0.99053335 0
c p weight -24 0.00946665 0
c p weight 25 0.98397083 0
c p weight -25 0.01602917 0
c p weight 26 0.99459276 0
c p weight -26 0.00540724 0
c p weight 27 0.99069371 0
c p weight -27 0.00930629 0
c p weight 28 0.98743126 0
c p weight -28 0.01256874 0
c p weight 29 0.99885769 0
c p weight -29 0.00114231 0
c p weight 30 0.98009168 0
c p weight -30 0.01990832 0
c p weight 31 0.99615973 0
c p weight -31 0.00384027 0
c p weight 32 0.00185262 0
c p weight -32 0.99814738 0
c p weight 33 0.99019142 0
c p weight -33 0.00980858 0
c p weight 34 0.99547233 0
c p weight -34 0.00452767 0
c p weight 35 0.98874939 0
c p weight -35 0.01125061 0
c p weight 36 0.99467864 0
c p weight -36 0.00532136 0
c p weight 37 0.00271812 0
c p weight -37 0.99728188 0
c p weight 38 0.99127318 0
c p weight -38 0.00872682 0
c p weight 39 0.01067142 0
c p weight -39 0.98932858 0
c p weight 40 0.98280038 0
c p weight -40 0.01719962 0
c p weight 41 0.98347523 0
c p weight -41 0.01652477 0
c p weight 42 0.00162849 0
c p weight -42 0.99837151 0
c p weight 43 0.01767828 0
c p weight -43 0.98232172 0
c p weight 44 0.01270069 0
c p weight -44 0.98729931 0
c p weight 45 0.00372884 0
c p weight -45 0.99627116 0
c p weight 46 0.00129323 0
c p weight -46 0.99870677 0
c p weight 47 0.99368158 0
c p weight -47 0.00631842 0
c p weight 48 0.01382278 0
c p weight -48 0.98617722 0
c p weight 49 0.01452985 0
c p weight -49 0.98547015 0
c p weight 50 0.99315658 0
c p weight -50 0.00684342 0
c p weight 51 0.99392511 0
c p weight -51 0.00607489 0
c p weight 52 0.99281936 0
c p weight -52 0.00718064 0
c p weight 53 0.98693067 0
c p weight -53 0.01306933 0
c p weight 54 0.98533602 0
c p weight -54 0.01466398 0
c p weight 55 0.99769379 0
c p weight -55 0.00230621 0
c p weight 56 0.98752774 0
c p weight -56 0.01247226 0
c p weight 57 0.01514658 0
c p weight -57 0.98485342 0
c p weight 58 0.99271337 0
c p weight -58 0.00728663 0
c p weight 59 0.99074543 0
c p weight -59 0.00925457 0
c p weight 60 0.98956331 0
c p weight -60 0.01043669 0
c p weight 61 0.98533359 0
c p weight -61 0.01466641 0
c p weight 62 0.99023446 0
c p weight -62 0.00976554 0
c p weight 63 0.00042429 0
c p weight -63 0.99957571 0
c p weight 64 0.01924423 0
c p weight -64 0.98075577 0
c p weight 65 0.98557601 0
c p weight -65 0.01442399 0
c p weight 66 0.99346127 0
c p weight -66 0.00653873 0
c p weight 67 0.9952196 0
c p weight -67 0.0047804 0
c p weight 68 0.98999812 0
c p weight -68 0.01000188 0
c p weight 69 0.00048379 0
c p weight -69 0.99951621 0
c p weight 70 0.9837029 0
c p weight -70 0.0162971 0
c p weight 71 0.99763811 0
c p weight -71 0.00236189 0
c p weight 72 0.98012298 0
c p weight -72 0.01987702 0
c p weight 73 0.98237556 0
c p weight -73 0.01762444 0
c p weight 74 0.99185966 0
c p weight -74 0.00814034 0
